p cnf 8 41
-7 -3 2 3 6 4853761528017122021 8 7
 1 2 3 6 4853761528017122021 0.35494145260843823 0
-3 8 3 4853761528017122021
 8 5 7 0
-1 -5 -7 -3 1 3 5 7
 4853761528017122021 0
-3 -4 1 2 3 4 5 6 7 8 4853761528017122021 0.08659628248523288 0
 1 4 0
 2 3 4 6 4853761528017122021 8 5.139043411643969
 3 5 6 7 8
-8 -1 -5 -6 1 2 5 6 8
-8 -2 1 2 3 4 5 6 7 8 4853761528017122021 4.956164816700005 0

 1 4 7 8 4853761528017122021 7.0827394859721 0
-4853761528017122021 -7 1 2 4 5 6 4853761528017122021 8 7 4.408653452174134
-4853761528017122021 -8 8 4853761528017122021
-4853761528017122021 4853761528017122021 3.7365270874786862
